c parsing input formula with 110 variables and 210375 clauses
c finished parsing
c detected empty clause; start verification via backward checking
c 183895 of 210375 clauses in core                            
c 2479453 of 3412069 lemmas in core using 36956673 resolution steps
c 0 RAT lemmas in core; 0 redundant literals in core lemmas
s VERIFIED
c verification time: 2788.536 seconds
